
  17    4
  10   10   10   10

   0   0   0   0   0   4 2 4 5 6 
   5  10  10  10  10   1 3 
   4  10  10  10  10   3 11 10 8 
   4  10  10  10  10   3 16 10 7 
   2  10  10  10  10   3 15 14 8 
   4  10  10  10  10   3 13 12 10 
   5  10  10  10  10   2 14 8 
   1  10  10  10  10   1 9 
   3  10  10  10  10   2 13 12 
   6  10  10  10  10   2 15 14 
   4  10  10  10  10   1 16 
  10  10  10  10  10   1 17
   6  10  10  10  10   1 17
   1  10  10  10  10   1 17
   3  10  10  10  10   1 17
   7  10  10  10  10   1 17
   0   0   0   0   0   0 
